# 21566
param k := 5;
param n := 60;
param s := 2;
set E :=  (0,11) (0,20) (1,14) (1,50) (2,8) (3,29) (4,12) (4,53) (5,32) (5,55) (5,56) (6,52) (6,59) (7,13) (7,15) (7,43) (8,25) (9,51) (10,41) (11,23) (11,43) (11,52) (11,55) (11,58) (12,41) (13,45) (13,50) (16,53) (16,56) (17,27) (17,34) (18,21) (18,38) (18,42) (19,26) (19,29) (19,47) (20,28) (20,58) (21,31) (21,51) (21,54) (22,50) (23,33) (24,38) (25,51) (25,55) (25,59) (26,31) (26,55) (26,57) (27,31) (27,35) (28,36) (29,51) (29,52) (30,31) (32,34) (32,50) (33,50) (34,36) (34,49) (35,38) (35,46) (35,56) (36,53) (37,44) (38,53) (39,47) (40,44) (40,47) (40,59) (41,50) (48,50) (50,52) (52,59);